c clasp version 2.1.1
c Reading from pb_200_08.cnf
c Solving...
s UNKNOWN

c TIME LIMIT    : 1
c Models        : 0+    
c Time          : 100000.294s (Solving: 99999.95s 1st Model: 0.00s Unsat: 0.00s)
c CPU Time      : 99840.140s
c Choices       : 181585397
c Conflicts     : 126129442
c Restarts      : 32     (Average: 3941545.06 Last: 110448420)

c Variables     : 190714 (Eliminated:    3 Frozen:    0)
c Constraints   : 194926 (Binary: 58.8% Ternary: 39.0% Other:  2.2%)
c Lemmas        : 126129442 (Binary:  0.0% Ternary:  0.0% Other:100.0%)
c   Conflict    : 126129442 (Average Length: 950.5) 
c   Loop        : 0      (Average Length: 0.0) 
c   Other       : 0      (Average Length: 0.0)
c   Deleted     : 126038645
